3 
4  13 27 41 59 
5  14 38 53 
6  08 23 38 53 
7  08 23 38 53 
8  08 23 38 53 
9  08 23 38 53 
10  08 23 38 53 
11  08 23 38 53 
12  08 23 38 53 
13  08 23 38 53 
14  08 23 38 53 
15  08 23 38 53 
16  08 23 38 53 
17  08 23 38 54 
18  09 23 38 53 
19  08 23 38 53 
20  08 23 38 53 
21  08 23 38 53 
22  11 26 46 
23 
